     Program PWSCF v.7.2 starts on  6Dec2024 at 16:56:58

     Reading input from scf.in

     Current dimensions of program PWSCF are:
     Max number of different atomic species (ntypx) = 10
     Max number of k-points (npk) =  40000
     Max angular momentum in pseudopotentials (lmaxx) =  4
     Message from routine setup:
     using ibrav=0 with symmetry is DISCOURAGED, use correct ibrav instead

     R & G space division:  proc/nbgrp/npool/nimage =      24
     Subspace diagonalization in iterative solution of the eigenvalue problem:
     a serial algorithm will be used

     Using Slab Decomposition

     bravais-lattice index     =            0
     lattice parameter (alat)  =      13.2054  a.u.
     unit-cell volume          =    1349.2206 (a.u.)^3
     number of atoms/cell      =           16
     number of atomic types    =            3
     number of electrons       =       162.00
     number of Kohn-Sham states=           97
     kinetic-energy cutoff     =      36.0000  Ry
     charge density cutoff     =     144.0000  Ry
     scf convergence threshold =      1.0E-10
     mixing beta               =       0.4000
     number of iterations used =            8  plain     mixing
     Exchange-correlation= PBE
                           (   1   4   3   4   0   0   0)

     celldm(1)=  13.205431  celldm(2)=   0.000000  celldm(3)=   0.000000
     celldm(4)=   0.000000  celldm(5)=   0.000000  celldm(6)=   0.000000

     crystal axes: (cart. coord. in units of alat)
               a(1) = (  -0.429363   0.429363   0.794541 )
               a(2) = (   0.429363  -0.429363   0.794541 )
               a(3) = (   0.429363   0.429363  -0.794541 )

     reciprocal axes: (cart. coord. in units 2 pi/alat)
               b(1) = (  0.000000  1.164516  0.629294 )
               b(2) = (  1.164516  0.000000  0.629294 )
               b(3) = (  1.164516  1.164516  0.000000 )

     PseudoPot. # 1 for B  read from file:
     /home/ccarrio/Superconductors/PQE-Mo5PB2/pseudo/B_pbe_v1.01.uspp.F.UPF
     MD5 check sum: d081ebb89d0c768e112975f650467a00
     Pseudo is Ultrasoft + core correction, Zval =  3.0
     Generated by new atomic code, or converted to UPF format
     Using radial grid of  781 points,  4 beta functions with:
                l(1) =   0
                l(2) =   0
                l(3) =   1
                l(4) =   1
     Q(r) pseudized with  8 coefficients,  rinner =    1.100   1.100   1.100

     PseudoPot. # 2 for Mo read from file:
     /home/ccarrio/Superconductors/PQE-Mo5PB2/pseudo/Mo_ONCV_PBE-1.0.oncvpsp.upf
     MD5 check sum: 1b5d28e075c9ccadda658a603575cd1f
     Pseudo is Norm-conserving, Zval = 14.0
     Generated using ONCVPSP code by D. R. Hamann
     Using radial grid of 1526 points,  6 beta functions with:
                l(1) =   0
                l(2) =   0
                l(3) =   1
                l(4) =   1
                l(5) =   2
                l(6) =   2

     PseudoPot. # 3 for P  read from file:
     /home/ccarrio/Superconductors/PQE-Mo5PB2/pseudo/P.pbe-n-rrkjus_psl.1.0.0.UPF
     MD5 check sum: 8b930f418f0a4573dca56cd030ffe088
     Pseudo is Ultrasoft + core correction, Zval =  5.0
     Generated using "atomic" code by A. Dal Corso  v.5.1
     Using radial grid of 1147 points,  6 beta functions with:
                l(1) =   0
                l(2) =   0
                l(3) =   1
                l(4) =   1
                l(5) =   2
                l(6) =   2
     Q(r) pseudized with 0 coefficients

     atomic species   valence    mass     pseudopotential
        B              3.00    10.81100     B ( 1.00)
        Mo            14.00    95.96000     Mo( 1.00)
        P              5.00    30.97376     P ( 1.00)

     16 Sym. Ops., with inversion, found ( 8 have fractional translation)

   Cartesian axes

     site n.     atom                  positions (alat units)
         1           B   tau(   1) = (   0.5320383   0.1026754   0.0000000  )
         2           B   tau(   2) = (  -0.1026754   0.3266875   0.7945407  )
         3           B   tau(   3) = (   0.3266875   0.1026754   0.7945407  )
         4           B   tau(   4) = (   0.1026754   0.3266875   0.0000000  )
         5           Mo  tau(   5) = (   0.0000000   0.0000000   0.0000000  )
         6           Mo  tau(   6) = (   0.0000000   0.0000000   0.7945407  )
         7           Mo  tau(   7) = (   0.1421997   0.5715627   0.2230650  )
         8           Mo  tau(   8) = (   0.2871632  -0.1421997   0.5714757  )
         9           Mo  tau(   9) = (   0.2871632  -0.1421997   1.0176058  )
        10           Mo  tau(  10) = (   0.1421997   0.5715627  -0.2230650  )
        11           Mo  tau(  11) = (   0.2871632   0.1421997   0.2230650  )
        12           Mo  tau(  12) = (   0.1421997   0.2871632   0.5714757  )
        13           Mo  tau(  13) = (   0.1421997   0.2871632   1.0176058  )
        14           Mo  tau(  14) = (   0.2871632   0.1421997  -0.2230650  )
        15           P   tau(  15) = (   0.0000000   0.0000000   0.3972704  )
        16           P   tau(  16) = (   0.0000000   0.0000000   1.1918111  )

     number of k points=   163  Marzari-Vanderbilt smearing, width (Ry)=  0.0500

     Number of k-points >= 100: set verbosity='high' to print them.

     Check: negative core charge=   -0.000008

     Initial potential from superposition of free atoms

     starting charge     161.9887, renormalised to     162.0000
     Starting wfcs are  124 randomized atomic wfcs

     Self-consistent Calculation

     iteration #  1     ecut=    36.00 Ry     beta= 0.40
     Davidson diagonalization with overlap
     ethr =  1.00E-02,  avg # of iterations =  2.0

     Threshold (ethr) on eigenvalues was too large:
     Diagonalizing with lowered threshold

     Davidson diagonalization with overlap
     ethr =  9.30E-04,  avg # of iterations =  1.7

     total energy              =   -1425.51755267 Ry
     estimated scf accuracy    <       1.54044199 Ry

[...]

     iteration #  5     ecut=    36.00 Ry     beta= 0.40
     Davidson diagonalization with overlap
     c_bands:  1 eigenvalues not converged
     c_bands:  1 eigenvalues not converged
     c_bands:  1 eigenvalues not converged
     c_bands:  2 eigenvalues not converged
     c_bands:  1 eigenvalues not converged
     c_bands:  1 eigenvalues not converged
     c_bands:  1 eigenvalues not converged
     c_bands:  1 eigenvalues not converged
     ethr =  8.19E-06,  avg # of iterations =  7.6

[...]

     iteration #  9     ecut=    36.00 Ry     beta= 0.40
     Davidson diagonalization with overlap
     c_bands:  1 eigenvalues not converged
     c_bands:  1 eigenvalues not converged
     ethr =  1.20E-09,  avg # of iterations =  9.4

[...]

     total energy              =   -1426.06044202 Ry
     estimated scf accuracy    <          6.2E-10 Ry

     iteration # 14     ecut=    36.00 Ry     beta= 0.40
     Davidson diagonalization with overlap
     ethr =  3.84E-13,  avg # of iterations =  5.1

     End of self-consistent calculation

     Number of k-points >= 100: set verbosity='high' to print the bands.

     the Fermi energy is    20.1613 ev

!    total energy              =   -1426.06044202 Ry
     estimated scf accuracy    <          7.3E-11 Ry
     smearing contrib. (-TS)   =      -0.03601914 Ry
     internal energy E=F+TS    =   -1426.02442289 Ry

     The total energy is F=E-TS. E is the sum of the following terms:
     one-electron contribution =    -221.76009379 Ry
     hartree contribution      =     207.51464748 Ry
     xc contribution           =    -178.49775112 Ry
     ewald contribution        =   -1233.28122545 Ry

     convergence has been achieved in  14 iterations

     Writing all to output data dir ./out/Mo5PB2.save/

     General routines

     Parallel routines

   This run was terminated on:  17: 4:17   6Dec2024

   JOB DONE.